100 155584
65 10 49 29 17 53 2 76 45 3 58 42 12 61 48 41 82 36 70 50 93 23 96 56 40 92 38 69 100 7 28 95 85 81 59 51 26 43 90 35 74 34 52 67 98 64 46 33 72 21 88 30 4 31 32 22 77 60 47 66 89 24 75 73 25 99 20 94 8 62 91 54 57 9 63 86 19 68 79 83 55 80 84 16 11 87 14 13 71 39 18 27 97 78 5 6 1 15 44 37 
